12 5 7 5 7 1 8 1 7 1 8 1 5 5 5 1 7 1 5 1 7 1 5 3 7 3 3 7
3 5 7 5 5 1 3 1 2 1 3 1 0 5 0 1 3 1 2 1 3 1 0 3 3 3 0 7
7 5 10 5 10 1 12 1 10 1 12 1 8 5 8 1 10 1 8 1 10 1 7 3 8 3 5 7
7 5 0 5 7 1 5 1 7 1 5 1 0 5 7 3 5 3 3 3 1 1 3 1 0 7
12 5 19 5 19 1 20 1 19 1 20 1 14 5 17 1 19 1 17 1 19 1 17 3 19 3 15 6
12 1 14 1 15 5 19 5 17 1 15 1 14 1 15 1 12 5 12 1 14 1 15 1 14 1 17 1 15 1 14 1 12 1 12 5
